c n orig vars 100
p cnf 413 1302
101 -1 0
101 -2 0
-101 1 2 0
102 -3 0
102 -4 0
-102 3 4 0
103 -5 0
103 -6 0
-103 5 6 0
104 -7 0
104 -8 0
-104 7 8 0
105 -9 0
105 -10 0
-105 9 10 0
106 -11 0
106 -12 0
-106 11 12 0
107 -13 0
107 -14 0
-107 13 14 0
108 -15 0
108 -16 0
-108 15 16 0
109 -17 0
109 -18 0
-109 17 18 0
110 -19 0
110 -20 0
-110 19 20 0
111 -21 0
111 -22 0
-111 21 22 0
112 -23 0
112 -24 0
-112 23 24 0
113 -25 0
113 -26 0
-113 25 26 0
114 -27 0
114 -28 0
-114 27 28 0
-115 101 0
-115 102 0
-115 103 0
-115 104 0
-115 105 0
-115 106 0
-115 107 0
-115 108 0
-115 109 0
-115 110 0
-115 111 0
-115 112 0
-115 113 0
-115 114 0
115 -101 -102 -103 -104 -105 -106 -107 -108 -109 -110 -111 -112 -113 -114 0
-115 0
116 -29 0
116 -38 0
116 -47 0
116 -56 0
116 -65 0
116 -74 0
116 -83 0
116 -92 0
-116 29 38 47 56 65 74 83 92 0
117 -30 0
117 -39 0
117 -48 0
117 -57 0
117 -66 0
117 -75 0
117 -84 0
117 -93 0
-117 30 39 48 57 66 75 84 93 0
118 -31 0
118 -40 0
118 -49 0
118 -58 0
118 -67 0
118 -76 0
118 -85 0
118 -94 0
-118 31 40 49 58 67 76 85 94 0
119 -32 0
119 -41 0
119 -50 0
119 -59 0
119 -68 0
119 -77 0
119 -86 0
119 -95 0
-119 32 41 50 59 68 77 86 95 0
120 -33 0
120 -42 0
120 -51 0
120 -60 0
120 -69 0
120 -78 0
120 -87 0
120 -96 0
-120 33 42 51 60 69 78 87 96 0
121 -34 0
121 -43 0
121 -52 0
121 -61 0
121 -70 0
121 -79 0
121 -88 0
121 -97 0
-121 34 43 52 61 70 79 88 97 0
122 -35 0
122 -44 0
122 -53 0
122 -62 0
122 -71 0
122 -80 0
122 -89 0
122 -98 0
-122 35 44 53 62 71 80 89 98 0
123 -36 0
123 -45 0
123 -54 0
123 -63 0
123 -72 0
123 -81 0
123 -90 0
123 -99 0
-123 36 45 54 63 72 81 90 99 0
124 -37 0
124 -46 0
124 -55 0
124 -64 0
124 -73 0
124 -82 0
124 -91 0
124 -100 0
-124 37 46 55 64 73 82 91 100 0
125 29 0
125 30 0
-125 -29 -30 0
126 29 0
126 31 0
-126 -29 -31 0
127 29 0
127 32 0
-127 -29 -32 0
128 29 0
128 33 0
-128 -29 -33 0
129 29 0
129 34 0
-129 -29 -34 0
130 29 0
130 35 0
-130 -29 -35 0
131 29 0
131 36 0
-131 -29 -36 0
132 29 0
132 37 0
-132 -29 -37 0
133 30 0
133 31 0
-133 -30 -31 0
134 30 0
134 32 0
-134 -30 -32 0
135 30 0
135 33 0
-135 -30 -33 0
136 30 0
136 34 0
-136 -30 -34 0
137 30 0
137 35 0
-137 -30 -35 0
138 30 0
138 36 0
-138 -30 -36 0
139 30 0
139 37 0
-139 -30 -37 0
140 31 0
140 32 0
-140 -31 -32 0
141 31 0
141 33 0
-141 -31 -33 0
142 31 0
142 34 0
-142 -31 -34 0
143 31 0
143 35 0
-143 -31 -35 0
144 31 0
144 36 0
-144 -31 -36 0
145 31 0
145 37 0
-145 -31 -37 0
146 32 0
146 33 0
-146 -32 -33 0
147 32 0
147 34 0
-147 -32 -34 0
148 32 0
148 35 0
-148 -32 -35 0
149 32 0
149 36 0
-149 -32 -36 0
150 32 0
150 37 0
-150 -32 -37 0
151 33 0
151 34 0
-151 -33 -34 0
152 33 0
152 35 0
-152 -33 -35 0
153 33 0
153 36 0
-153 -33 -36 0
154 33 0
154 37 0
-154 -33 -37 0
155 34 0
155 35 0
-155 -34 -35 0
156 34 0
156 36 0
-156 -34 -36 0
157 34 0
157 37 0
-157 -34 -37 0
158 35 0
158 36 0
-158 -35 -36 0
159 35 0
159 37 0
-159 -35 -37 0
160 36 0
160 37 0
-160 -36 -37 0
161 38 0
161 39 0
-161 -38 -39 0
162 38 0
162 40 0
-162 -38 -40 0
163 38 0
163 41 0
-163 -38 -41 0
164 38 0
164 42 0
-164 -38 -42 0
165 38 0
165 43 0
-165 -38 -43 0
166 38 0
166 44 0
-166 -38 -44 0
167 38 0
167 45 0
-167 -38 -45 0
168 38 0
168 46 0
-168 -38 -46 0
169 39 0
169 40 0
-169 -39 -40 0
170 39 0
170 41 0
-170 -39 -41 0
171 39 0
171 42 0
-171 -39 -42 0
172 39 0
172 43 0
-172 -39 -43 0
173 39 0
173 44 0
-173 -39 -44 0
174 39 0
174 45 0
-174 -39 -45 0
175 39 0
175 46 0
-175 -39 -46 0
176 40 0
176 41 0
-176 -40 -41 0
177 40 0
177 42 0
-177 -40 -42 0
178 40 0
178 43 0
-178 -40 -43 0
179 40 0
179 44 0
-179 -40 -44 0
180 40 0
180 45 0
-180 -40 -45 0
181 40 0
181 46 0
-181 -40 -46 0
182 41 0
182 42 0
-182 -41 -42 0
183 41 0
183 43 0
-183 -41 -43 0
184 41 0
184 44 0
-184 -41 -44 0
185 41 0
185 45 0
-185 -41 -45 0
186 41 0
186 46 0
-186 -41 -46 0
187 42 0
187 43 0
-187 -42 -43 0
188 42 0
188 44 0
-188 -42 -44 0
189 42 0
189 45 0
-189 -42 -45 0
190 42 0
190 46 0
-190 -42 -46 0
191 43 0
191 44 0
-191 -43 -44 0
192 43 0
192 45 0
-192 -43 -45 0
193 43 0
193 46 0
-193 -43 -46 0
194 44 0
194 45 0
-194 -44 -45 0
195 44 0
195 46 0
-195 -44 -46 0
196 45 0
196 46 0
-196 -45 -46 0
197 47 0
197 48 0
-197 -47 -48 0
198 47 0
198 49 0
-198 -47 -49 0
199 47 0
199 50 0
-199 -47 -50 0
200 47 0
200 51 0
-200 -47 -51 0
201 47 0
201 52 0
-201 -47 -52 0
202 47 0
202 53 0
-202 -47 -53 0
203 47 0
203 54 0
-203 -47 -54 0
204 47 0
204 55 0
-204 -47 -55 0
205 48 0
205 49 0
-205 -48 -49 0
206 48 0
206 50 0
-206 -48 -50 0
207 48 0
207 51 0
-207 -48 -51 0
208 48 0
208 52 0
-208 -48 -52 0
209 48 0
209 53 0
-209 -48 -53 0
210 48 0
210 54 0
-210 -48 -54 0
211 48 0
211 55 0
-211 -48 -55 0
212 49 0
212 50 0
-212 -49 -50 0
213 49 0
213 51 0
-213 -49 -51 0
214 49 0
214 52 0
-214 -49 -52 0
215 49 0
215 53 0
-215 -49 -53 0
216 49 0
216 54 0
-216 -49 -54 0
217 49 0
217 55 0
-217 -49 -55 0
218 50 0
218 51 0
-218 -50 -51 0
219 50 0
219 52 0
-219 -50 -52 0
220 50 0
220 53 0
-220 -50 -53 0
221 50 0
221 54 0
-221 -50 -54 0
222 50 0
222 55 0
-222 -50 -55 0
223 51 0
223 52 0
-223 -51 -52 0
224 51 0
224 53 0
-224 -51 -53 0
225 51 0
225 54 0
-225 -51 -54 0
226 51 0
226 55 0
-226 -51 -55 0
227 52 0
227 53 0
-227 -52 -53 0
228 52 0
228 54 0
-228 -52 -54 0
229 52 0
229 55 0
-229 -52 -55 0
230 53 0
230 54 0
-230 -53 -54 0
231 53 0
231 55 0
-231 -53 -55 0
232 54 0
232 55 0
-232 -54 -55 0
233 56 0
233 57 0
-233 -56 -57 0
234 56 0
234 58 0
-234 -56 -58 0
235 56 0
235 59 0
-235 -56 -59 0
236 56 0
236 60 0
-236 -56 -60 0
237 56 0
237 61 0
-237 -56 -61 0
238 56 0
238 62 0
-238 -56 -62 0
239 56 0
239 63 0
-239 -56 -63 0
240 56 0
240 64 0
-240 -56 -64 0
241 57 0
241 58 0
-241 -57 -58 0
242 57 0
242 59 0
-242 -57 -59 0
243 57 0
243 60 0
-243 -57 -60 0
244 57 0
244 61 0
-244 -57 -61 0
245 57 0
245 62 0
-245 -57 -62 0
246 57 0
246 63 0
-246 -57 -63 0
247 57 0
247 64 0
-247 -57 -64 0
248 58 0
248 59 0
-248 -58 -59 0
249 58 0
249 60 0
-249 -58 -60 0
250 58 0
250 61 0
-250 -58 -61 0
251 58 0
251 62 0
-251 -58 -62 0
252 58 0
252 63 0
-252 -58 -63 0
253 58 0
253 64 0
-253 -58 -64 0
254 59 0
254 60 0
-254 -59 -60 0
255 59 0
255 61 0
-255 -59 -61 0
256 59 0
256 62 0
-256 -59 -62 0
257 59 0
257 63 0
-257 -59 -63 0
258 59 0
258 64 0
-258 -59 -64 0
259 60 0
259 61 0
-259 -60 -61 0
260 60 0
260 62 0
-260 -60 -62 0
261 60 0
261 63 0
-261 -60 -63 0
262 60 0
262 64 0
-262 -60 -64 0
263 61 0
263 62 0
-263 -61 -62 0
264 61 0
264 63 0
-264 -61 -63 0
265 61 0
265 64 0
-265 -61 -64 0
266 62 0
266 63 0
-266 -62 -63 0
267 62 0
267 64 0
-267 -62 -64 0
268 63 0
268 64 0
-268 -63 -64 0
269 65 0
269 66 0
-269 -65 -66 0
270 65 0
270 67 0
-270 -65 -67 0
271 65 0
271 68 0
-271 -65 -68 0
272 65 0
272 69 0
-272 -65 -69 0
273 65 0
273 70 0
-273 -65 -70 0
274 65 0
274 71 0
-274 -65 -71 0
275 65 0
275 72 0
-275 -65 -72 0
276 65 0
276 73 0
-276 -65 -73 0
277 66 0
277 67 0
-277 -66 -67 0
278 66 0
278 68 0
-278 -66 -68 0
279 66 0
279 69 0
-279 -66 -69 0
280 66 0
280 70 0
-280 -66 -70 0
281 66 0
281 71 0
-281 -66 -71 0
282 66 0
282 72 0
-282 -66 -72 0
283 66 0
283 73 0
-283 -66 -73 0
284 67 0
284 68 0
-284 -67 -68 0
285 67 0
285 69 0
-285 -67 -69 0
286 67 0
286 70 0
-286 -67 -70 0
287 67 0
287 71 0
-287 -67 -71 0
288 67 0
288 72 0
-288 -67 -72 0
289 67 0
289 73 0
-289 -67 -73 0
290 68 0
290 69 0
-290 -68 -69 0
291 68 0
291 70 0
-291 -68 -70 0
292 68 0
292 71 0
-292 -68 -71 0
293 68 0
293 72 0
-293 -68 -72 0
294 68 0
294 73 0
-294 -68 -73 0
295 69 0
295 70 0
-295 -69 -70 0
296 69 0
296 71 0
-296 -69 -71 0
297 69 0
297 72 0
-297 -69 -72 0
298 69 0
298 73 0
-298 -69 -73 0
299 70 0
299 71 0
-299 -70 -71 0
300 70 0
300 72 0
-300 -70 -72 0
301 70 0
301 73 0
-301 -70 -73 0
302 71 0
302 72 0
-302 -71 -72 0
303 71 0
303 73 0
-303 -71 -73 0
304 72 0
304 73 0
-304 -72 -73 0
305 74 0
305 75 0
-305 -74 -75 0
306 74 0
306 76 0
-306 -74 -76 0
307 74 0
307 77 0
-307 -74 -77 0
308 74 0
308 78 0
-308 -74 -78 0
309 74 0
309 79 0
-309 -74 -79 0
310 74 0
310 80 0
-310 -74 -80 0
311 74 0
311 81 0
-311 -74 -81 0
312 74 0
312 82 0
-312 -74 -82 0
313 75 0
313 76 0
-313 -75 -76 0
314 75 0
314 77 0
-314 -75 -77 0
315 75 0
315 78 0
-315 -75 -78 0
316 75 0
316 79 0
-316 -75 -79 0
317 75 0
317 80 0
-317 -75 -80 0
318 75 0
318 81 0
-318 -75 -81 0
319 75 0
319 82 0
-319 -75 -82 0
320 76 0
320 77 0
-320 -76 -77 0
321 76 0
321 78 0
-321 -76 -78 0
322 76 0
322 79 0
-322 -76 -79 0
323 76 0
323 80 0
-323 -76 -80 0
324 76 0
324 81 0
-324 -76 -81 0
325 76 0
325 82 0
-325 -76 -82 0
326 77 0
326 78 0
-326 -77 -78 0
327 77 0
327 79 0
-327 -77 -79 0
328 77 0
328 80 0
-328 -77 -80 0
329 77 0
329 81 0
-329 -77 -81 0
330 77 0
330 82 0
-330 -77 -82 0
331 78 0
331 79 0
-331 -78 -79 0
332 78 0
332 80 0
-332 -78 -80 0
333 78 0
333 81 0
-333 -78 -81 0
334 78 0
334 82 0
-334 -78 -82 0
335 79 0
335 80 0
-335 -79 -80 0
336 79 0
336 81 0
-336 -79 -81 0
337 79 0
337 82 0
-337 -79 -82 0
338 80 0
338 81 0
-338 -80 -81 0
339 80 0
339 82 0
-339 -80 -82 0
340 81 0
340 82 0
-340 -81 -82 0
341 83 0
341 84 0
-341 -83 -84 0
342 83 0
342 85 0
-342 -83 -85 0
343 83 0
343 86 0
-343 -83 -86 0
344 83 0
344 87 0
-344 -83 -87 0
345 83 0
345 88 0
-345 -83 -88 0
346 83 0
346 89 0
-346 -83 -89 0
347 83 0
347 90 0
-347 -83 -90 0
348 83 0
348 91 0
-348 -83 -91 0
349 84 0
349 85 0
-349 -84 -85 0
350 84 0
350 86 0
-350 -84 -86 0
351 84 0
351 87 0
-351 -84 -87 0
352 84 0
352 88 0
-352 -84 -88 0
353 84 0
353 89 0
-353 -84 -89 0
354 84 0
354 90 0
-354 -84 -90 0
355 84 0
355 91 0
-355 -84 -91 0
356 85 0
356 86 0
-356 -85 -86 0
357 85 0
357 87 0
-357 -85 -87 0
358 85 0
358 88 0
-358 -85 -88 0
359 85 0
359 89 0
-359 -85 -89 0
360 85 0
360 90 0
-360 -85 -90 0
361 85 0
361 91 0
-361 -85 -91 0
362 86 0
362 87 0
-362 -86 -87 0
363 86 0
363 88 0
-363 -86 -88 0
364 86 0
364 89 0
-364 -86 -89 0
365 86 0
365 90 0
-365 -86 -90 0
366 86 0
366 91 0
-366 -86 -91 0
367 87 0
367 88 0
-367 -87 -88 0
368 87 0
368 89 0
-368 -87 -89 0
369 87 0
369 90 0
-369 -87 -90 0
370 87 0
370 91 0
-370 -87 -91 0
371 88 0
371 89 0
-371 -88 -89 0
372 88 0
372 90 0
-372 -88 -90 0
373 88 0
373 91 0
-373 -88 -91 0
374 89 0
374 90 0
-374 -89 -90 0
375 89 0
375 91 0
-375 -89 -91 0
376 90 0
376 91 0
-376 -90 -91 0
377 92 0
377 93 0
-377 -92 -93 0
378 92 0
378 94 0
-378 -92 -94 0
379 92 0
379 95 0
-379 -92 -95 0
380 92 0
380 96 0
-380 -92 -96 0
381 92 0
381 97 0
-381 -92 -97 0
382 92 0
382 98 0
-382 -92 -98 0
383 92 0
383 99 0
-383 -92 -99 0
384 92 0
384 100 0
-384 -92 -100 0
385 93 0
385 94 0
-385 -93 -94 0
386 93 0
386 95 0
-386 -93 -95 0
387 93 0
387 96 0
-387 -93 -96 0
388 93 0
388 97 0
-388 -93 -97 0
389 93 0
389 98 0
-389 -93 -98 0
390 93 0
390 99 0
-390 -93 -99 0
391 93 0
391 100 0
-391 -93 -100 0
392 94 0
392 95 0
-392 -94 -95 0
393 94 0
393 96 0
-393 -94 -96 0
394 94 0
394 97 0
-394 -94 -97 0
395 94 0
395 98 0
-395 -94 -98 0
396 94 0
396 99 0
-396 -94 -99 0
397 94 0
397 100 0
-397 -94 -100 0
398 95 0
398 96 0
-398 -95 -96 0
399 95 0
399 97 0
-399 -95 -97 0
400 95 0
400 98 0
-400 -95 -98 0
401 95 0
401 99 0
-401 -95 -99 0
402 95 0
402 100 0
-402 -95 -100 0
403 96 0
403 97 0
-403 -96 -97 0
404 96 0
404 98 0
-404 -96 -98 0
405 96 0
405 99 0
-405 -96 -99 0
406 96 0
406 100 0
-406 -96 -100 0
407 97 0
407 98 0
-407 -97 -98 0
408 97 0
408 99 0
-408 -97 -99 0
409 97 0
409 100 0
-409 -97 -100 0
410 98 0
410 99 0
-410 -98 -99 0
411 98 0
411 100 0
-411 -98 -100 0
412 99 0
412 100 0
-412 -99 -100 0
-413 116 0
-413 117 0
-413 118 0
-413 119 0
-413 120 0
-413 121 0
-413 122 0
-413 123 0
-413 124 0
-413 125 0
-413 126 0
-413 127 0
-413 128 0
-413 129 0
-413 130 0
-413 131 0
-413 132 0
-413 133 0
-413 134 0
-413 135 0
-413 136 0
-413 137 0
-413 138 0
-413 139 0
-413 140 0
-413 141 0
-413 142 0
-413 143 0
-413 144 0
-413 145 0
-413 146 0
-413 147 0
-413 148 0
-413 149 0
-413 150 0
-413 151 0
-413 152 0
-413 153 0
-413 154 0
-413 155 0
-413 156 0
-413 157 0
-413 158 0
-413 159 0
-413 160 0
-413 161 0
-413 162 0
-413 163 0
-413 164 0
-413 165 0
-413 166 0
-413 167 0
-413 168 0
-413 169 0
-413 170 0
-413 171 0
-413 172 0
-413 173 0
-413 174 0
-413 175 0
-413 176 0
-413 177 0
-413 178 0
-413 179 0
-413 180 0
-413 181 0
-413 182 0
-413 183 0
-413 184 0
-413 185 0
-413 186 0
-413 187 0
-413 188 0
-413 189 0
-413 190 0
-413 191 0
-413 192 0
-413 193 0
-413 194 0
-413 195 0
-413 196 0
-413 197 0
-413 198 0
-413 199 0
-413 200 0
-413 201 0
-413 202 0
-413 203 0
-413 204 0
-413 205 0
-413 206 0
-413 207 0
-413 208 0
-413 209 0
-413 210 0
-413 211 0
-413 212 0
-413 213 0
-413 214 0
-413 215 0
-413 216 0
-413 217 0
-413 218 0
-413 219 0
-413 220 0
-413 221 0
-413 222 0
-413 223 0
-413 224 0
-413 225 0
-413 226 0
-413 227 0
-413 228 0
-413 229 0
-413 230 0
-413 231 0
-413 232 0
-413 233 0
-413 234 0
-413 235 0
-413 236 0
-413 237 0
-413 238 0
-413 239 0
-413 240 0
-413 241 0
-413 242 0
-413 243 0
-413 244 0
-413 245 0
-413 246 0
-413 247 0
-413 248 0
-413 249 0
-413 250 0
-413 251 0
-413 252 0
-413 253 0
-413 254 0
-413 255 0
-413 256 0
-413 257 0
-413 258 0
-413 259 0
-413 260 0
-413 261 0
-413 262 0
-413 263 0
-413 264 0
-413 265 0
-413 266 0
-413 267 0
-413 268 0
-413 269 0
-413 270 0
-413 271 0
-413 272 0
-413 273 0
-413 274 0
-413 275 0
-413 276 0
-413 277 0
-413 278 0
-413 279 0
-413 280 0
-413 281 0
-413 282 0
-413 283 0
-413 284 0
-413 285 0
-413 286 0
-413 287 0
-413 288 0
-413 289 0
-413 290 0
-413 291 0
-413 292 0
-413 293 0
-413 294 0
-413 295 0
-413 296 0
-413 297 0
-413 298 0
-413 299 0
-413 300 0
-413 301 0
-413 302 0
-413 303 0
-413 304 0
-413 305 0
-413 306 0
-413 307 0
-413 308 0
-413 309 0
-413 310 0
-413 311 0
-413 312 0
-413 313 0
-413 314 0
-413 315 0
-413 316 0
-413 317 0
-413 318 0
-413 319 0
-413 320 0
-413 321 0
-413 322 0
-413 323 0
-413 324 0
-413 325 0
-413 326 0
-413 327 0
-413 328 0
-413 329 0
-413 330 0
-413 331 0
-413 332 0
-413 333 0
-413 334 0
-413 335 0
-413 336 0
-413 337 0
-413 338 0
-413 339 0
-413 340 0
-413 341 0
-413 342 0
-413 343 0
-413 344 0
-413 345 0
-413 346 0
-413 347 0
-413 348 0
-413 349 0
-413 350 0
-413 351 0
-413 352 0
-413 353 0
-413 354 0
-413 355 0
-413 356 0
-413 357 0
-413 358 0
-413 359 0
-413 360 0
-413 361 0
-413 362 0
-413 363 0
-413 364 0
-413 365 0
-413 366 0
-413 367 0
-413 368 0
-413 369 0
-413 370 0
-413 371 0
-413 372 0
-413 373 0
-413 374 0
-413 375 0
-413 376 0
-413 377 0
-413 378 0
-413 379 0
-413 380 0
-413 381 0
-413 382 0
-413 383 0
-413 384 0
-413 385 0
-413 386 0
-413 387 0
-413 388 0
-413 389 0
-413 390 0
-413 391 0
-413 392 0
-413 393 0
-413 394 0
-413 395 0
-413 396 0
-413 397 0
-413 398 0
-413 399 0
-413 400 0
-413 401 0
-413 402 0
-413 403 0
-413 404 0
-413 405 0
-413 406 0
-413 407 0
-413 408 0
-413 409 0
-413 410 0
-413 411 0
-413 412 0
413 -116 -117 -118 -119 -120 -121 -122 -123 -124 -125 -126 -127 -128 -129 -130 -131 -132 -133 -134 -135 -136 -137 -138 -139 -140 -141 -142 -143 -144 -145 -146 -147 -148 -149 -150 -151 -152 -153 -154 -155 -156 -157 -158 -159 -160 -161 -162 -163 -164 -165 -166 -167 -168 -169 -170 -171 -172 -173 -174 -175 -176 -177 -178 -179 -180 -181 -182 -183 -184 -185 -186 -187 -188 -189 -190 -191 -192 -193 -194 -195 -196 -197 -198 -199 -200 -201 -202 -203 -204 -205 -206 -207 -208 -209 -210 -211 -212 -213 -214 -215 -216 -217 -218 -219 -220 -221 -222 -223 -224 -225 -226 -227 -228 -229 -230 -231 -232 -233 -234 -235 -236 -237 -238 -239 -240 -241 -242 -243 -244 -245 -246 -247 -248 -249 -250 -251 -252 -253 -254 -255 -256 -257 -258 -259 -260 -261 -262 -263 -264 -265 -266 -267 -268 -269 -270 -271 -272 -273 -274 -275 -276 -277 -278 -279 -280 -281 -282 -283 -284 -285 -286 -287 -288 -289 -290 -291 -292 -293 -294 -295 -296 -297 -298 -299 -300 -301 -302 -303 -304 -305 -306 -307 -308 -309 -310 -311 -312 -313 -314 -315 -316 -317 -318 -319 -320 -321 -322 -323 -324 -325 -326 -327 -328 -329 -330 -331 -332 -333 -334 -335 -336 -337 -338 -339 -340 -341 -342 -343 -344 -345 -346 -347 -348 -349 -350 -351 -352 -353 -354 -355 -356 -357 -358 -359 -360 -361 -362 -363 -364 -365 -366 -367 -368 -369 -370 -371 -372 -373 -374 -375 -376 -377 -378 -379 -380 -381 -382 -383 -384 -385 -386 -387 -388 -389 -390 -391 -392 -393 -394 -395 -396 -397 -398 -399 -400 -401 -402 -403 -404 -405 -406 -407 -408 -409 -410 -411 -412 0
-413 0
